50

100 9 332
96 30 503
94 28 403
93 18 461
91 1 329
91 34 427
91 20 393
88 40 385
84 32 463
83 13 587
80 26 339
78 14 323
78 15 234
76 36 240
75 36 548
74 24 581
72 20 463
72 20 223
70 30 577
65 7 473
61 3 562
60 10 327
56 28 365
52 15 424
51 4 235
51 26 220
48 11 324
46 21 198
45 1 333
38 1 567
38 3 369
37 2 506
37 15 231
37 16 221
36 3 437
35 16 315
35 1 561
32 2 271
32 6 403
31 8 292
30 1 294
29 3 531
29 6 585
28 2 510
27 9 492
27 3 477
23 10 239
23 8 137
22 7 310
21 9 328
